Route #1: 4 27 52 8 46 34
Route #2: 45 29 5 48 30 2
Route #3: 6 33 1 63 16 44 51
Route #4: 3 49 24 18 55 25 50 32
Route #5: 23 56 41 43 42 64 22
Route #6: 62 28 61 21 36 47
Route #7: 37 60 20 15 57 13 54 19 35
Route #8: 7 53 14 59 11
Route #9: 38 10 31 9 39
Route #10: 17 40 12 58 26
Cost 840